c read Graph
c width = 11
c time = 57 ms
c width = 1
c time = 115 ms
c width = 1
c time = 4899 ms
s td 846 2 1065
b 1 614 615
b 2 1 614
b 3 228 229
b 4 1 228
b 5 2
b 6 3
b 7 420 421
b 8 4 421
b 9 5 934
b 10 6
b 11 7
b 12 8
b 13 9 729
b 14 9 1028
b 15 10
b 16 11
b 17 268 269
b 18 12 269
b 19 12 354
b 20 954 955
b 21 13 954
b 22 816 817
b 23 13 816
b 24 14 712
b 25 15 713
b 26 16
b 27 17 937
b 28 236 237
b 29 18 237
b 30 19
b 31 20
b 32 21 1063
b 33 790 791
b 34 22 791
b 35 22 372
b 36 22 480
b 37 23 554
b 38 24
b 39 26 668
b 40 26 739
b 41 26 619
b 42 618 619
b 43 25 618
b 44 368 369
b 45 25 368
b 46 322 323
b 47 27 322
b 48 28 400
b 49 29 1051
b 50 29 624
b 51 29 887
b 52 30 625
b 53 30 590
b 54 31 804
b 55 31 230
b 56 31 741
b 57 32 1006
b 58 33 645
b 59 33 994
b 60 33 353
b 61 34 598
b 62 35
b 63 36 308
b 64 37 639
b 65 38 360
b 66 38 555
b 67 444 445
b 68 38 444
b 69 39
b 70 40 298
b 71 41 669
b 72 41 1032
b 73 486 487
b 74 42 487
b 75 42 1033
b 76 43 401
b 77 878 879
b 78 43 879
b 79 44 775
b 80 44 951
b 81 45 457
b 82 45 1058
b 83 46
b 84 47 1007
b 85 48 1031
b 86 49 342
b 87 50 385
b 88 51
b 89 52 540
b 90 852 853
b 91 52 853
b 92 52 370
b 93 53 361
b 94 632 633
b 95 54 632
b 96 54 922
b 97 794 795
b 98 54 795
b 99 55 743
b 100 55 923
b 101 55 670
b 102 56 849
b 103 57 408
b 104 58 1065
b 105 616 617
b 106 59 617
b 107 59 584
b 108 60
b 109 61 330
b 110 61 532
b 111 62 347
b 112 62 996
b 113 63
b 114 64
b 115 65 473
b 116 65 338
b 117 66 419
b 118 66 1022
b 119 66 896
b 120 67
b 121 68 947
b 122 534 535
b 123 69 535
b 124 70
b 125 71 260
b 126 72 1024
b 127 72 824
b 128 640 641
b 129 72 641
b 130 72 409
b 131 73 1025
b 132 73 334
b 133 74 770
b 134 75 410
b 135 76 448
b 136 356 357
b 137 77 357
b 138 77 462
b 139 77 910
b 140 78 911
b 141 258 259
b 142 79 259
b 143 80 339
b 144 81 325
b 145 82 546
b 146 83 705
b 147 390 391
b 148 83 390
b 149 84 676
b 150 85 981
b 151 102 365
b 152 364 365
b 153 101 364
b 154 116 233
b 155 232 233
b 156 101 232
b 157 101 659
b 158 658 659
b 159 86 658
b 160 382 383
b 161 87 383
b 162 88 694
b 163 88 569
b 164 89 771
b 165 90 1042
b 166 754 755
b 167 91 754
b 168 91 654
b 169 92 655
b 170 92 488
b 171 93 720
b 172 93 1055
b 173 94 716
b 174 95 717
b 175 95 276
b 176 96 964
b 177 97 547
b 178 98 279
b 179 128 778
b 180 350 351
b 181 128 350
b 182 128 815
b 183 814 815
b 184 113 814
b 185 113 863
b 186 113 525
b 187 524 525
b 188 98 524
b 189 99 869
b 190 99 242
b 191 99 413
b 192 698 699
b 193 100 699
b 194 103 718
b 195 104 649
b 196 562 563
b 197 104 562
b 198 105
b 199 106 264
b 200 107 898
b 201 107 489
b 202 107 526
b 203 108 721
b 204 109 767
b 205 766 767
b 206 108 766
b 207 110 987
b 208 111
b 209 112 235
b 210 112 707
b 211 112 862
b 212 114 468
b 213 114 901
b 214 115 251
b 215 872 873
b 216 130 872
b 217 130 567
b 218 566 567
b 219 115 566
b 220 117
b 221 133 495
b 222 494 495
b 223 118 494
b 224 118 719
b 225 119 1001
b 226 119 417
b 227 120
b 228 121 870
b 229 122
b 230 123 538
b 231 123 647
b 232 788 789
b 233 124 788
b 234 582 583
b 235 125 583
b 236 125 607
b 237 126
b 238 127 776
b 239 498 499
b 240 129 498
b 241 508 509
b 242 131 509
b 243 132 432
b 244 610 611
b 245 132 610
b 246 1038 1039
b 247 132 1039
b 248 134 427
b 249 782 783
b 250 135 783
b 251 135 388
b 252 500 501
b 253 137 500
b 254 137 345
b 255 344 345
b 256 136 344
b 257 924 925
b 258 151 924
b 259 151 283
b 260 282 283
b 261 136 282
b 262 138 477
b 263 139 470
b 264 548 549
b 265 140 549
b 266 140 732
b 267 141 733
b 268 142 765
b 269 142 928
b 270 143 290
b 271 143 929
b 272 1012 1013
b 273 144 1013
b 274 144 490
b 275 144 404
b 276 145 608
b 277 146
b 278 147 846
b 279 149 305
b 280 304 305
b 281 148 304
b 282 150
b 283 152 392
b 284 152 710
b 285 153 1036
b 286 296 297
b 287 153 297
b 288 958 959
b 289 153 958
b 290 154
b 291 155 912
b 292 157 485
b 293 484 485
b 294 156 484
b 295 976 977
b 296 158 977
b 297 159 856
b 298 160 281
b 299 978 979
b 300 161 979
b 301 162 386
b 302 642 643
b 303 162 643
b 304 162 652
b 305 163
b 306 942 943
b 307 164 942
b 308 165
b 309 166
b 310 167 359
b 311 167 711
b 312 168 571
b 313 570 571
b 314 167 570
b 315 169
b 316 170 536
b 317 171 933
b 318 962 963
b 319 171 962
b 320 300 301
b 321 172 300
b 322 172 521
b 323 172 514
b 324 173 1044
b 325 173 515
b 326 173 914
b 327 174 1045
b 328 174 857
b 329 174 748
b 330 916 917
b 331 175 916
b 332 622 623
b 333 176 622
b 334 177 516
b 335 177 883
b 336 178 517
b 337 178 522
b 338 179 890
b 339 179 523
b 340 180
b 341 181 446
b 342 182 660
b 343 183
b 344 184 1008
b 345 184 990
b 346 185
b 347 186 543
b 348 187 435
b 349 187 796
b 350 700 701
b 351 188 700
b 352 188 312
b 353 188 915
b 354 189 749
b 355 189 512
b 356 586 587
b 357 190 586
b 358 191
b 359 192 394
b 360 193 572
b 361 193 961
b 362 194 891
b 363 195 328
b 364 750 751
b 365 195 751
b 366 196
b 367 197 506
b 368 197 406
b 369 198 552
b 370 198 507
b 371 198 808
b 372 199 553
b 373 850 851
b 374 199 850
b 375 200 634
b 376 284 285
b 377 201 284
b 378 202
b 379 203
b 380 204 513
b 381 205 579
b 382 205 780
b 383 436 437
b 384 206 437
b 385 207 867
b 386 208 865
b 387 209
b 388 210 367
b 389 210 329
b 390 211
b 391 212
b 392 213 953
b 393 214
b 394 215 327
b 395 216
b 396 217 785
b 397 708 709
b 398 218 708
b 399 596 597
b 400 219 597
b 401 220 786
b 402 222 341
b 403 222 529
b 404 528 529
b 405 221 528
b 406 221 441
b 407 223 1026
b 408 224 1027
b 409 888 889
b 410 224 889
b 411 225 683
b 412 226 227
b 413 231
b 414 234
b 415 238
b 416 239
b 417 240
b 418 241
b 419 243
b 420 244
b 421 245
b 422 246
b 423 247
b 424 248
b 425 249
b 426 250
b 427 252
b 428 253
b 429 254
b 430 255
b 431 256 257
b 432 261
b 433 262
b 434 263
b 435 265
b 436 266
b 437 267
b 438 270
b 439 271
b 440 272
b 441 273
b 442 274
b 443 275
b 444 277
b 445 278
b 446 280
b 447 286 287
b 448 288 289
b 449 291
b 450 292 293
b 451 294
b 452 295
b 453 299
b 454 302
b 455 303
b 456 306
b 457 307
b 458 309
b 459 310
b 460 311
b 461 313
b 462 314
b 463 315
b 464 316 317
b 465 318 319
b 466 320 321
b 467 324
b 468 326
b 469 331
b 470 332
b 471 333
b 472 335
b 473 336
b 474 337
b 475 340
b 476 343
b 477 346
b 478 348 349
b 479 352
b 480 355
b 481 358
b 482 362
b 483 363
b 484 366
b 485 371
b 486 373
b 487 374 375
b 488 376
b 489 377
b 490 378
b 491 379
b 492 380
b 493 381
b 494 384
b 495 387
b 496 389
b 497 393
b 498 395
b 499 396
b 500 397
b 501 398
b 502 399
b 503 402
b 504 403
b 505 405
b 506 407
b 507 411
b 508 412
b 509 414
b 510 415
b 511 416
b 512 418
b 513 422
b 514 423
b 515 424 425
b 516 426
b 517 428 429
b 518 430
b 519 431
b 520 433
b 521 434
b 522 438
b 523 439
b 524 440
b 525 442
b 526 443
b 527 447
b 528 449
b 529 450
b 530 451
b 531 452
b 532 453
b 533 454 455
b 534 456
b 535 458 459
b 536 460
b 537 461
b 538 463
b 539 464
b 540 465
b 541 466
b 542 467
b 543 469
b 544 471
b 545 472
b 546 474
b 547 475
b 548 476
b 549 478 479
b 550 481
b 551 482 483
b 552 491
b 553 492 493
b 554 496
b 555 497
b 556 502
b 557 503
b 558 504
b 559 505
b 560 510 511
b 561 518
b 562 519
b 563 520
b 564 527
b 565 530
b 566 531
b 567 533
b 568 537
b 569 539
b 570 541
b 571 542
b 572 544
b 573 545
b 574 550
b 575 551
b 576 556
b 577 557
b 578 558
b 579 559
b 580 560 561
b 581 564
b 582 565
b 583 568
b 584 573
b 585 574
b 586 575
b 587 576
b 588 577
b 589 578
b 590 580
b 591 581
b 592 585
b 593 588 589
b 594 591
b 595 592
b 596 593
b 597 594
b 598 595
b 599 599
b 600 600 601
b 601 602
b 602 603
b 603 604
b 604 605
b 605 606
b 606 609
b 607 612
b 608 613
b 609 620
b 610 621
b 611 626 627
b 612 628
b 613 629
b 614 630
b 615 631
b 616 635
b 617 636 637
b 618 638
b 619 644
b 620 646
b 621 648
b 622 650
b 623 651
b 624 653
b 625 656
b 626 657
b 627 661
b 628 662
b 629 663
b 630 664
b 631 665
b 632 666 667
b 633 671
b 634 672
b 635 673
b 636 674 675
b 637 677
b 638 678
b 639 679
b 640 680 681
b 641 682
b 642 684
b 643 685
b 644 686
b 645 687
b 646 688 689
b 647 690
b 648 691
b 649 692 693
b 650 695
b 651 696
b 652 697
b 653 702
b 654 703
b 655 704
b 656 706
b 657 714
b 658 715
b 659 722
b 660 723
b 661 724
b 662 725
b 663 726
b 664 727
b 665 728
b 666 730
b 667 731
b 668 734
b 669 735
b 670 736 737
b 671 738
b 672 740
b 673 742
b 674 744
b 675 745
b 676 746
b 677 747
b 678 752 753
b 679 756 757
b 680 758
b 681 759
b 682 760
b 683 761
b 684 762
b 685 763
b 686 764
b 687 768
b 688 769
b 689 772
b 690 773
b 691 774
b 692 777
b 693 779
b 694 781
b 695 784
b 696 787
b 697 792 793
b 698 797
b 699 798
b 700 799
b 701 800
b 702 801
b 703 802 803
b 704 805
b 705 806
b 706 807
b 707 809
b 708 810
b 709 811
b 710 812 813
b 711 818
b 712 819
b 713 820
b 714 821
b 715 822 823
b 716 825
b 717 826 827
b 718 828
b 719 829
b 720 830
b 721 831
b 722 832 833
b 723 834
b 724 835
b 725 836
b 726 837
b 727 838
b 728 839
b 729 840 841
b 730 842 843
b 731 844
b 732 845
b 733 847
b 734 848
b 735 854
b 736 855
b 737 858
b 738 859
b 739 860
b 740 861
b 741 864
b 742 866
b 743 868
b 744 871
b 745 874 875
b 746 876 877
b 747 880 881
b 748 882
b 749 884 885
b 750 886
b 751 892
b 752 893
b 753 894
b 754 895
b 755 897
b 756 899
b 757 900
b 758 902
b 759 903
b 760 904
b 761 905
b 762 906
b 763 907
b 764 908
b 765 909
b 766 913
b 767 918
b 768 919
b 769 920
b 770 921
b 771 926 927
b 772 930
b 773 931
b 774 932
b 775 935
b 776 936
b 777 938
b 778 939
b 779 940
b 780 941
b 781 944
b 782 945
b 783 946
b 784 948
b 785 949
b 786 950
b 787 952
b 788 956
b 789 957
b 790 960
b 791 965
b 792 966 967
b 793 968
b 794 969
b 795 970
b 796 971
b 797 972
b 798 973
b 799 974
b 800 975
b 801 980
b 802 982
b 803 983
b 804 984
b 805 985
b 806 986
b 807 988
b 808 989
b 809 991
b 810 992 993
b 811 995
b 812 997
b 813 998
b 814 999
b 815 1000
b 816 1002
b 817 1003
b 818 1004 1005
b 819 1009
b 820 1010 1011
b 821 1014
b 822 1015
b 823 1016 1017
b 824 1018
b 825 1019
b 826 1020 1021
b 827 1023
b 828 1029
b 829 1030
b 830 1034
b 831 1035
b 832 1037
b 833 1040 1041
b 834 1043
b 835 1046 1047
b 836 1048
b 837 1049
b 838 1050
b 839 1052
b 840 1053
b 841 1054
b 842 1056 1057
b 843 1059
b 844 1060 1061
b 845 1062
b 846 1064
1 2
1 5
1 6
1 7
1 9
1 10
1 11
1 12
1 13
1 15
1 16
1 17
1 20
1 24
1 25
1 26
1 27
1 28
1 30
1 31
1 32
1 33
1 37
1 38
1 39
1 46
1 48
1 49
1 52
1 54
1 57
1 58
1 61
1 62
1 63
1 64
1 65
1 69
1 70
1 71
1 73
1 76
1 79
1 81
1 83
1 84
1 85
1 86
1 87
1 88
1 89
1 93
1 94
1 99
1 102
1 103
1 104
1 105
1 108
1 109
1 111
1 113
1 114
1 115
1 117
1 120
1 121
1 122
1 124
1 125
1 126
1 131
1 133
1 134
1 135
1 136
1 140
1 141
1 143
1 144
1 145
1 146
1 149
1 150
1 151
1 160
1 162
1 164
1 165
1 166
1 169
1 171
1 173
1 174
1 176
1 177
1 178
1 189
1 192
1 194
1 195
1 198
1 199
1 200
1 203
1 207
1 208
1 209
1 212
1 214
1 220
1 221
1 225
1 227
1 228
1 229
1 230
1 232
1 234
1 237
1 238
1 239
1 241
1 243
1 248
1 249
1 252
1 262
1 263
1 264
1 267
1 268
1 270
1 272
1 276
1 277
1 278
1 279
1 282
1 283
1 285
1 290
1 291
1 292
1 295
1 297
1 298
1 299
1 301
1 305
1 306
1 308
1 309
1 310
1 315
1 316
1 317
1 320
1 324
1 327
1 330
1 332
1 334
1 336
1 338
1 340
1 341
1 342
1 343
1 344
1 346
1 347
1 348
1 350
1 354
1 356
1 358
1 359
1 360
1 362
1 363
1 366
1 367
1 369
1 372
1 375
1 376
1 378
1 379
1 380
1 381
1 383
1 385
1 386
1 387
1 388
1 390
1 391
1 392
1 393
1 394
1 395
1 396
1 397
1 399
1 401
1 402
1 407
1 408
1 411
1 412
1 413
1 414
1 415
1 416
1 417
1 418
1 419
1 420
1 421
1 422
1 423
1 424
1 425
1 426
1 427
1 428
1 429
1 430
1 431
1 432
1 433
1 434
1 435
1 436
1 437
1 438
1 439
1 440
1 441
1 442
1 443
1 444
1 445
1 446
1 447
1 448
1 449
1 450
1 451
1 452
1 453
1 454
1 455
1 456
1 457
1 458
1 459
1 460
1 461
1 462
1 463
1 464
1 465
1 466
1 467
1 468
1 469
1 470
1 471
1 472
1 473
1 474
1 475
1 476
1 477
1 478
1 479
1 480
1 481
1 482
1 483
1 484
1 485
1 486
1 487
1 488
1 489
1 490
1 491
1 492
1 493
1 494
1 495
1 496
1 497
1 498
1 499
1 500
1 501
1 502
1 503
1 504
1 505
1 506
1 507
1 508
1 509
1 510
1 511
1 512
1 513
1 514
1 515
1 516
1 517
1 518
1 519
1 520
1 521
1 522
1 523
1 524
1 525
1 526
1 527
1 528
1 529
1 530
1 531
1 532
1 533
1 534
1 535
1 536
1 537
1 538
1 539
1 540
1 541
1 542
1 543
1 544
1 545
1 546
1 547
1 548
1 549
1 550
1 551
1 552
1 553
1 554
1 555
1 556
1 557
1 558
1 559
1 560
1 561
1 562
1 563
1 564
1 565
1 566
1 567
1 568
1 569
1 570
1 571
1 572
1 573
1 574
1 575
1 576
1 577
1 578
1 579
1 580
1 581
1 582
1 583
1 584
1 585
1 586
1 587
1 588
1 589
1 590
1 591
1 592
1 593
1 594
1 595
1 596
1 597
1 598
1 599
1 600
1 601
1 602
1 603
1 604
1 605
1 606
1 607
1 608
1 609
1 610
1 611
1 612
1 613
1 614
1 615
1 616
1 617
1 618
1 619
1 620
1 621
1 622
1 623
1 624
1 625
1 626
1 627
1 628
1 629
1 630
1 631
1 632
1 633
1 634
1 635
1 636
1 637
1 638
1 639
1 640
1 641
1 642
1 643
1 644
1 645
1 646
1 647
1 648
1 649
1 650
1 651
1 652
1 653
1 654
1 655
1 656
1 657
1 658
1 659
1 660
1 661
1 662
1 663
1 664
1 665
1 666
1 667
1 668
1 669
1 670
1 671
1 672
1 673
1 674
1 675
1 676
1 677
1 678
1 679
1 680
1 681
1 682
1 683
1 684
1 685
1 686
1 687
1 688
1 689
1 690
1 691
1 692
1 693
1 694
1 695
1 696
1 697
1 698
1 699
1 700
1 701
1 702
1 703
1 704
1 705
1 706
1 707
1 708
1 709
1 710
1 711
1 712
1 713
1 714
1 715
1 716
1 717
1 718
1 719
1 720
1 721
1 722
1 723
1 724
1 725
1 726
1 727
1 728
1 729
1 730
1 731
1 732
1 733
1 734
1 735
1 736
1 737
1 738
1 739
1 740
1 741
1 742
1 743
1 744
1 745
1 746
1 747
1 748
1 749
1 750
1 751
1 752
1 753
1 754
1 755
1 756
1 757
1 758
1 759
1 760
1 761
1 762
1 763
1 764
1 765
1 766
1 767
1 768
1 769
1 770
1 771
1 772
1 773
1 774
1 775
1 776
1 777
1 778
1 779
1 780
1 781
1 782
1 783
1 784
1 785
1 786
1 787
1 788
1 789
1 790
1 791
1 792
1 793
1 794
1 795
1 796
1 797
1 798
1 799
1 800
1 801
1 802
1 803
1 804
1 805
1 806
1 807
1 808
1 809
1 810
1 811
1 812
1 813
1 814
1 815
1 816
1 817
1 818
1 819
1 820
1 821
1 822
1 823
1 824
1 825
1 826
1 827
1 828
1 829
1 830
1 831
1 832
1 833
1 834
1 835
1 836
1 837
1 838
1 839
1 840
1 841
1 842
1 843
1 844
1 845
1 846
2 4
3 4
7 8
13 14
17 18
18 19
20 21
21 23
22 23
28 29
33 34
34 35
34 36
39 40
39 41
41 42
42 43
43 45
44 45
46 47
49 50
49 51
52 53
54 55
54 56
58 59
58 60
65 66
65 68
67 68
71 72
73 74
74 75
76 78
77 78
79 80
81 82
89 91
89 92
90 91
94 95
95 96
95 98
97 98
99 100
99 101
105 106
106 107
109 110
111 112
115 116
117 118
117 119
122 123
126 127
126 129
126 130
128 129
131 132
136 137
137 138
137 139
141 142
146 148
147 148
151 152
152 153
153 156
153 157
154 155
155 156
157 158
158 159
160 161
162 163
166 167
167 168
169 170
171 172
174 175
178 188
179 181
179 182
180 181
182 183
183 184
184 185
184 186
186 187
187 188
189 190
189 191
192 193
195 197
196 197
200 201
200 202
203 206
204 205
205 206
209 210
209 211
212 213
214 219
215 216
216 217
217 218
218 219
221 222
222 223
223 224
225 226
230 231
232 233
234 235
235 236
239 240
241 242
243 245
243 247
244 245
246 247
249 250
250 251
252 253
253 254
254 255
255 256
256 261
257 258
258 259
259 260
260 261
264 265
265 266
268 269
270 271
272 273
273 274
273 275
279 280
280 281
283 284
285 287
285 289
286 287
288 289
292 293
293 294
295 296
299 300
301 303
301 304
302 303
306 307
310 311
310 314
312 313
313 314
317 319
318 319
320 321
321 322
321 323
324 325
324 326
327 328
327 329
330 331
332 333
334 335
336 337
338 339
344 345
348 349
350 351
351 352
351 353
354 355
356 357
360 361
363 365
364 365
367 368
369 370
369 371
372 374
373 374
376 377
381 382
383 384
388 389
397 398
399 400
402 403
403 404
404 405
405 406
408 410
409 410
